WARNING: for repeatability, setting FPU to use double precision
============================[ Problem Statistics ]=============================
|                                                                             |
|  Number of variables:           100                                         |
|  Number of clauses:             449                                         |
|  Parse time:                   0.00 s                                       |
|  Eliminated clauses:           0.00 Mb                                      |
|  Simplification time:          0.00 s                                       |
|                                                                             |
============================[ Search Statistics ]==============================
| Conflicts |          ORIGINAL         |          LEARNT          | Progress |
|           |    Vars  Clauses Literals |    Limit  Clauses Lit/Cl |          |
===============================================================================
|       100 |      98      447     1350 |      163      100      7 |  0.012 % |
===============================================================================
restarts              : 3
conflicts             : 243            (73973 /sec)
decisions             : 298            (0.00 % random) (90715 /sec)
propagations          : 5152           (1568341 /sec)
conflict literals     : 1377           (19.85 % deleted)
Memory used           : 13.00 MB
CPU time              : 0.003285 s

SATISFIABLE
